c https://en.wikipedia.org/wiki/Tseytin_transformation
c x1 = 9
c x2 = 10
c x3 = 11
c line 1
p cnf 11 22
1 9 0 
-1 -9 0
-2 1 0
-2 10 0
c line 2
-10 2 -1 0
3 10 0
-3 -10 0
-4 9 0
c line 3
-4 3 0
-3 4 -9 0
5 10 0
c line 4
-5 -10 0
-6 5 0
-6 11 0
c line 5
-11 6 5 0
7 -2 0
7 -4 0
c line 6
2 -7 4 0
8 -6 0
8 -7 0
c line 7
6 -8 7 0
8 0

